\ENCODING=ISO-8859-1
\Problem name: ilog.cplex

Minimize
 obj1: 94397 x1 + 92130 x2 + 92317 x3 + 108026 x4 + 107163 x5 + 103144 x6
       + 106610 x7 + 103009 x8 + 94973 x9 + 103455 x10 + 103831 x11 + 96117 x12
       + 108562 x13 + 94784 x14 + 93260 x15 + 90442 x16 + 109296 x17
       + 108809 x18 + 102958 x19 + 106356 x20 + 99284 x21 + 104306 x22
       + 99531 x23 + 105253 x24 + 103477 x25 + 104397 x26 + 102683 x27
       + 103027 x28 + 102386 x29 + 91997 x30 + 96180 x31 + 109100 x32
       + 105166 x33 + 98415 x34 + 100758 x35 + 109035 x36 + 94545 x37
       + 92592 x38 + 99062 x39 + 96573 x40 + 107457 x41 + 106622 x42
       + 107886 x43 + 94419 x44 + 98209 x45 + 96936 x46 + 98777 x47
       + 102162 x48 + 104630 x49 + 99959 x50 + 96048 x51 + 95826 x52
       + 102766 x53 + 103579 x54 + 106170 x55 + 101127 x56 + 90438 x57
       + 94953 x58 + 92047 x59 + 108841 x60 + 91456 x61 + 99733 x62 + 92392 x63
       + 102703 x64 + 91679 x65 + 108102 x66 + 105381 x67 + 108473 x68
       + 103190 x69 + 91318 x70 + 100643 x71 + 101420 x72 + 101366 x73
       + 96115 x74 + 92825 x75 + 94508 x76 + 98187 x77 + 90771 x78 + 93186 x79
       + 108695 x80 + 95049 x81 + 103931 x82 + 95688 x83 + 98797 x84
       + 93664 x85 + 97143 x86 + 109701 x87 + 101016 x88 + 104610 x89
       + 102553 x90 + 102699 x91 + 101585 x92 + 99632 x93 + 98322 x94
       + 103238 x95 + 99864 x96 + 106053 x97 + 106051 x98 + 97005 x99
       + 93790 x100 + 90765 x101 + 94268 x102 + 105990 x103 + 101751 x104
       + 102846 x105 + 100909 x106 + 98482 x107 + 108111 x108 + 101557 x109
       + 93011 x110 + 104631 x111 + 103688 x112 + 104659 x113 + 108351 x114
       + 106377 x115 + 92759 x116 + 104933 x117 + 93271 x118 + 93210 x119
       + 99258 x120 + 109269 x121 + 91837 x122 + 91305 x123 + 105593 x124
       + 95365 x125 + 98243 x126 + 106640 x127 + 92622 x128 + 92794 x129
       + 93772 x130 + 90145 x131 + 99404 x132 + 95465 x133 + 98109 x134
       + 90959 x135 + 100068 x136 + 93230 x137 + 98856 x138 + 92438 x139
       + 109594 x140 + 91866 x141 + 102827 x142 + 104849 x143 + 100261 x144
       + 92687 x145 + 98020 x146 + 98498 x147 + 96208 x148 + 105713 x149
       + 106130 x150 + 102040 x151 + 97973 x152 + 100362 x153 + 107822 x154
       + 98942 x155 + 102545 x156 + 108486 x157 + 101807 x158 + 105558 x159
       + 102672 x160 + 107012 x161 + 93605 x162 + 95416 x163 + 99202 x164
       + 103858 x165 + 93091 x166 + 107181 x167 + 92488 x168 + 91035 x169
       + 97828 x170 + 99784 x171 + 103937 x172 + 109303 x173 + 107425 x174
       + 96391 x175 + 98246 x176 + 108562 x177 + 94277 x178 + 107244 x179
       + 96986 x180 + 105325 x181 + 96825 x182 + 102952 x183 + 90303 x184
       + 100515 x185 + 90422 x186 + 97062 x187 + 100268 x188 + 98363 x189
       + 100398 x190 + 109517 x191 + 106737 x192 + 100311 x193 + 92148 x194
       + 101117 x195 + 94605 x196 + 96610 x197 + 103822 x198 + 93150 x199
       + 99930 x200 + 101640 x201 + 107312 x202 + 105895 x203 + 106455 x204
       + 105409 x205 + 95529 x206 + 92461 x207 + 92381 x208 + 96785 x209
       + 99978 x210 + 99717 x211 + 94016 x212 + 101732 x213 + 101890 x214
       + 95010 x215 + 98347 x216 + 104525 x217 + 104965 x218 + 101091 x219
       + 104859 x220 + 95282 x221 + 103754 x222 + 102263 x223 + 102410 x224
       + 92398 x225 + 101891 x226 + 101725 x227 + 106631 x228 + 108779 x229
       + 104898 x230 + 101054 x231 + 101891 x232 + 104995 x233 + 97318 x234
       + 109801 x235 + 92202 x236 + 97340 x237 + 94566 x238 + 90850 x239
       + 91382 x240 + 104289 x241 + 96177 x242 + 105504 x243 + 94395 x244
       + 100919 x245 + 98990 x246 + 101166 x247 + 108986 x248 + 107644 x249
       + 78659 x250 + 18625 x251 + 19484 x252 + 19671 x253 + 19531 x254
       + 20122 x255 + 20500 x256 + 19318 x257 + 21783 x258 + 19170 x259
       + 20604 x260 + 20301 x261 + 20350 x262 + 21242 x263 + 18905 x264
       + 19724 x265 + 21532 x266 + 20711 x267 + 19389 x268 + 18562 x269
       + 19628 x270 + 21518 x271 + 18282 x272 + 19470 x273 + 20490 x274
       + 20147 x275 + 21632 x276 + 20559 x277 + 20554 x278 + 21682 x279
       + 21328 x280 + 21413 x281 + 19156 x282 + 18085 x283 + 21552 x284
       + 19130 x285 + 19401 x286 + 19458 x287 + 19812 x288 + 19052 x289
       + 20716 x290 + 18188 x291 + 19259 x292 + 21084 x293 + 20447 x294
       + 18257 x295 + 21876 x296 + 20166 x297 + 18423 x298 + 21854 x299
       + 17857 x300
Subject To
 c1:   x7 + x14 - x16 + x21 + x29 - x32 - x40 - x45 + x49  = 0
 c2:   x57 + x64 - x66 + x71 + x79 - x82 - x90 - x95 + x99  = 0
 c3:   x107 + x114 - x116 + x121 + x129 - x132 - x140 - x145 + x149  = 0
 c4:   x157 + x164 - x166 + x171 + x179 - x182 - x190 - x195 + x199  = 0
 c5:   x207 + x214 - x216 + x221 + x229 - x232 - x240 - x245 + x249  = 0
 c6:   x4 - x10 + x16 + x17 - x19 - x38 + x44  = -1
 c7:   x54 - x60 + x66 + x67 - x69 - x88 + x94  = 0
 c8:   x104 - x110 + x116 + x117 - x119 - x138 + x144  = 0
 c9:   x154 - x160 + x166 + x167 - x169 - x188 + x194  = 0
 c10:  x204 - x210 + x216 + x217 - x219 - x238 + x244  = 0
 c11:  x6 - x12 + x20 - x21 + x22 - x43  = 0
 c12:  x56 - x62 + x70 - x71 + x72 - x93  = 0
 c13:  x106 - x112 + x120 - x121 + x122 - x143  = 0
 c14:  x156 - x162 + x170 - x171 + x172 - x193  = -1
 c15:  x206 - x212 + x220 - x221 + x222 - x243  = 0
 c16:  - x5 - x8 - x13 - x23 + x27 + x28 + x42 + x43 + x48  = 0
 c17:  - x55 - x58 - x63 - x73 + x77 + x78 + x92 + x93 + x98  = 1
 c18:  - x105 - x108 - x113 - x123 + x127 + x128 + x142 + x143 + x148  = 0
 c19:  - x155 - x158 - x163 - x173 + x177 + x178 + x192 + x193 + x198  = 1
 c20:  - x205 - x208 - x213 - x223 + x227 + x228 + x242 + x243 + x248  = 0
 c21:  - x2 - x30 - x35 - x47  = 0
 c22:  - x52 - x80 - x85 - x97  = 0
 c23:  - x102 - x130 - x135 - x147  = 0
 c24:  - x152 - x180 - x185 - x197  = 0
 c25:  - x202 - x230 - x235 - x247  = -1
 c26:  - x4 + x5 + x11 - x20 - x27 + x45  = 0
 c27:  - x54 + x55 + x61 - x70 - x77 + x95  = 0
 c28:  - x104 + x105 + x111 - x120 - x127 + x145  = 1
 c29:  - x154 + x155 + x161 - x170 - x177 + x195  = 0
 c30:  - x204 + x205 + x211 - x220 - x227 + x245  = 0
 c31:  x13 - x18 - x22 + x24 + x25 + x34 - x36 + x37 + x38 - x49  = 0
 c32:  x63 - x68 - x72 + x74 + x75 + x84 - x86 + x87 + x88 - x99  = 0
 c33:  x113 - x118 - x122 + x124 + x125 + x134 - x136 + x137 + x138 - x149  = 0
 c34:  x163 - x168 - x172 + x174 + x175 + x184 - x186 + x187 + x188 - x199  = 0
 c35:  x213 - x218 - x222 + x224 + x225 + x234 - x236 + x237 + x238 - x249  = 1
 c36:  - x6 + x9 + x12 - x28 - x41  = 0
 c37:  - x56 + x59 + x62 - x78 - x91  = 0
 c38:  - x106 + x109 + x112 - x128 - x141  = 0
 c39:  - x156 + x159 + x162 - x178 - x191  = 0
 c40:  - x206 + x209 + x212 - x228 - x241  = 0
 c41:  x2 + x3 - x7 - x9 + x19 - x33 - x34  = 0
 c42:  x52 + x53 - x57 - x59 + x69 - x83 - x84  = -1
 c43:  x102 + x103 - x107 - x109 + x119 - x133 - x134  = 0
 c44:  x152 + x153 - x157 - x159 + x169 - x183 - x184  = 0
 c45:  x202 + x203 - x207 - x209 + x219 - x233 - x234  = 0
 c46:  - x17 - x39 - x46  = 0
 c47:  - x67 - x89 - x96  = 0
 c48:  - x117 - x139 - x146  = 0
 c49:  - x167 - x189 - x196  = 0
 c50:  - x217 - x239 - x246  = 0
 c51:  - x3 + x8 - x15 + x18 + x30 - x31 - x44 + x50  = 0
 c52:  - x53 + x58 - x65 + x68 + x80 - x81 - x94 + x100  = 0
 c53:  - x103 + x108 - x115 + x118 + x130 - x131 - x144 + x150  = 0
 c54:  - x153 + x158 - x165 + x168 + x180 - x181 - x194 + x200  = 0
 c55:  - x203 + x208 - x215 + x218 + x230 - x231 - x244 + x250  = 0
 c56:  - x1 + x23 - x25 + x26 - x29 + x35 + x36 + x40 - x42  = 0
 c57:  - x51 + x73 - x75 + x76 - x79 + x85 + x86 + x90 - x92  = 0
 c58:  - x101 + x123 - x125 + x126 - x129 + x135 + x136 + x140 - x142  = 0
 c59:  - x151 + x173 - x175 + x176 - x179 + x185 + x186 + x190 - x192  = 0
 c60:  - x201 + x223 - x225 + x226 - x229 + x235 + x236 + x240 - x242  = 0
 c61:  x1 - x11 - x14 + x31 + x46 + x47 - x48  = 1
 c62:  x51 - x61 - x64 + x81 + x96 + x97 - x98  = 0
 c63:  x101 - x111 - x114 + x131 + x146 + x147 - x148  = -1
 c64:  x151 - x161 - x164 + x181 + x196 + x197 - x198  = 0
 c65:  x201 - x211 - x214 + x231 + x246 + x247 - x248  = 0
 c66:  x10 + x15 - x24 + x32 + x33 + x41  = 0
 c67:  x60 + x65 - x74 + x82 + x83 + x91  = 0
 c68:  x110 + x115 - x124 + x132 + x133 + x141  = 0
 c69:  x160 + x165 - x174 + x182 + x183 + x191  = 0
 c70:  x210 + x215 - x224 + x232 + x233 + x241  = 0
 c71:  - x26 - x37 + x39 - x50  = 0
 c72:  - x76 - x87 + x89 - x100  = 0
 c73:  - x126 - x137 + x139 - x150  = 0
 c74:  - x176 - x187 + x189 - x200  = 0
 c75:  - x226 - x237 + x239 - x250  = 0
 c76:  4 x1 + 4 x51 + 4 x101 + 4 x151 + 4 x201 - 2 x251 <= 0
 c77:  4 x2 + 4 x52 + 4 x102 + 4 x152 + 4 x202 - 2 x252 <= 0
 c78:  4 x3 + 4 x53 + 4 x103 + 4 x153 + 4 x203 - 2 x253 <= 0
 c79:  4 x4 + 4 x54 + 4 x104 + 4 x154 + 4 x204 - 2 x254 <= 0
 c80:  4 x5 + 4 x55 + 4 x105 + 4 x155 + 4 x205 - 2 x255 <= 0
 c81:  4 x6 + 4 x56 + 4 x106 + 4 x156 + 4 x206 - 2 x256 <= 0
 c82:  4 x7 + 4 x57 + 4 x107 + 4 x157 + 4 x207 - 2 x257 <= 0
 c83:  4 x8 + 4 x58 + 4 x108 + 4 x158 + 4 x208 - 2 x258 <= 0
 c84:  4 x9 + 4 x59 + 4 x109 + 4 x159 + 4 x209 - 2 x259 <= 0
 c85:  4 x10 + 4 x60 + 4 x110 + 4 x160 + 4 x210 - 2 x260 <= 0
 c86:  4 x11 + 4 x61 + 4 x111 + 4 x161 + 4 x211 - 2 x261 <= 0
 c87:  4 x12 + 4 x62 + 4 x112 + 4 x162 + 4 x212 - 2 x262 <= 0
 c88:  4 x13 + 4 x63 + 4 x113 + 4 x163 + 4 x213 - 2 x263 <= 0
 c89:  4 x14 + 4 x64 + 4 x114 + 4 x164 + 4 x214 - 2 x264 <= 0
 c90:  4 x15 + 4 x65 + 4 x115 + 4 x165 + 4 x215 - 2 x265 <= 0
 c91:  4 x16 + 4 x66 + 4 x116 + 4 x166 + 4 x216 - 2 x266 <= 0
 c92:  4 x17 + 4 x67 + 4 x117 + 4 x167 + 4 x217 - 2 x267 <= 0
 c93:  4 x18 + 4 x68 + 4 x118 + 4 x168 + 4 x218 - 2 x268 <= 0
 c94:  4 x19 + 4 x69 + 4 x119 + 4 x169 + 4 x219 - 2 x269 <= 0
 c95:  4 x20 + 4 x70 + 4 x120 + 4 x170 + 4 x220 - 2 x270 <= 0
 c96:  4 x21 + 4 x71 + 4 x121 + 4 x171 + 4 x221 - 2 x271 <= 0
 c97:  4 x22 + 4 x72 + 4 x122 + 4 x172 + 4 x222 - 2 x272 <= 0
 c98:  4 x23 + 4 x73 + 4 x123 + 4 x173 + 4 x223 - 2 x273 <= 0
 c99:  4 x24 + 4 x74 + 4 x124 + 4 x174 + 4 x224 - 2 x274 <= 0
 c100: 4 x25 + 4 x75 + 4 x125 + 4 x175 + 4 x225 - 2 x275 <= 0
 c101: 4 x26 + 4 x76 + 4 x126 + 4 x176 + 4 x226 - 2 x276 <= 0
 c102: 4 x27 + 4 x77 + 4 x127 + 4 x177 + 4 x227 - 2 x277 <= 0
 c103: 4 x28 + 4 x78 + 4 x128 + 4 x178 + 4 x228 - 2 x278 <= 0
 c104: 4 x29 + 4 x79 + 4 x129 + 4 x179 + 4 x229 - 2 x279 <= 0
 c105: 4 x30 + 4 x80 + 4 x130 + 4 x180 + 4 x230 - 2 x280 <= 0
 c106: 4 x31 + 4 x81 + 4 x131 + 4 x181 + 4 x231 - 2 x281 <= 0
 c107: 4 x32 + 4 x82 + 4 x132 + 4 x182 + 4 x232 - 2 x282 <= 0
 c108: 4 x33 + 4 x83 + 4 x133 + 4 x183 + 4 x233 - 2 x283 <= 0
 c109: 4 x34 + 4 x84 + 4 x134 + 4 x184 + 4 x234 - 2 x284 <= 0
 c110: 4 x35 + 4 x85 + 4 x135 + 4 x185 + 4 x235 - 2 x285 <= 0
 c111: 4 x36 + 4 x86 + 4 x136 + 4 x186 + 4 x236 - 2 x286 <= 0
 c112: 4 x37 + 4 x87 + 4 x137 + 4 x187 + 4 x237 - 2 x287 <= 0
 c113: 4 x38 + 4 x88 + 4 x138 + 4 x188 + 4 x238 - 2 x288 <= 0
 c114: 4 x39 + 4 x89 + 4 x139 + 4 x189 + 4 x239 - 2 x289 <= 0
 c115: 4 x40 + 4 x90 + 4 x140 + 4 x190 + 4 x240 - 2 x290 <= 0
 c116: 4 x41 + 4 x91 + 4 x141 + 4 x191 + 4 x241 - 2 x291 <= 0
 c117: 4 x42 + 4 x92 + 4 x142 + 4 x192 + 4 x242 - 2 x292 <= 0
 c118: 4 x43 + 4 x93 + 4 x143 + 4 x193 + 4 x243 - 2 x293 <= 0
 c119: 4 x44 + 4 x94 + 4 x144 + 4 x194 + 4 x244 - 2 x294 <= 0
 c120: 4 x45 + 4 x95 + 4 x145 + 4 x195 + 4 x245 - 2 x295 <= 0
 c121: 4 x46 + 4 x96 + 4 x146 + 4 x196 + 4 x246 - 2 x296 <= 0
 c122: 4 x47 + 4 x97 + 4 x147 + 4 x197 + 4 x247 - 2 x297 <= 0
 c123: 4 x48 + 4 x98 + 4 x148 + 4 x198 + 4 x248 - 2 x298 <= 0
 c124: 4 x49 + 4 x99 + 4 x149 + 4 x199 + 4 x249 - 2 x299 <= 0
 c125: 4 x50 + 4 x100 + 4 x150 + 4 x200 + 4 x250 - 2 x300 <= 0
Bounds
 0 <= x1 <= 1
 0 <= x2 <= 1
 0 <= x3 <= 1
 0 <= x4 <= 1
 0 <= x5 <= 1
 0 <= x6 <= 1
 0 <= x7 <= 1
 0 <= x8 <= 1
 0 <= x9 <= 1
 0 <= x10 <= 1
 0 <= x11 <= 1
 0 <= x12 <= 1
 0 <= x13 <= 1
 0 <= x14 <= 1
 0 <= x15 <= 1
 0 <= x16 <= 1
 0 <= x17 <= 1
 0 <= x18 <= 1
 0 <= x19 <= 1
 0 <= x20 <= 1
 0 <= x21 <= 1
 0 <= x22 <= 1
 0 <= x23 <= 1
 0 <= x24 <= 1
 0 <= x25 <= 1
 0 <= x26 <= 1
 0 <= x27 <= 1
 0 <= x28 <= 1
 0 <= x29 <= 1
 0 <= x30 <= 1
 0 <= x31 <= 1
 0 <= x32 <= 1
 0 <= x33 <= 1
 0 <= x34 <= 1
 0 <= x35 <= 1
 0 <= x36 <= 1
 0 <= x37 <= 1
 0 <= x38 <= 1
 0 <= x39 <= 1
 0 <= x40 <= 1
 0 <= x41 <= 1
 0 <= x42 <= 1
 0 <= x43 <= 1
 0 <= x44 <= 1
 0 <= x45 <= 1
 0 <= x46 <= 1
 0 <= x47 <= 1
 0 <= x48 <= 1
 0 <= x49 <= 1
 0 <= x50 <= 1
 0 <= x51 <= 1
 0 <= x52 <= 1
 0 <= x53 <= 1
 0 <= x54 <= 1
 0 <= x55 <= 1
 0 <= x56 <= 1
 0 <= x57 <= 1
 0 <= x58 <= 1
 0 <= x59 <= 1
 0 <= x60 <= 1
 0 <= x61 <= 1
 0 <= x62 <= 1
 0 <= x63 <= 1
 0 <= x64 <= 1
 0 <= x65 <= 1
 0 <= x66 <= 1
 0 <= x67 <= 1
 0 <= x68 <= 1
 0 <= x69 <= 1
 0 <= x70 <= 1
 0 <= x71 <= 1
 0 <= x72 <= 1
 0 <= x73 <= 1
 0 <= x74 <= 1
 0 <= x75 <= 1
 0 <= x76 <= 1
 0 <= x77 <= 1
 0 <= x78 <= 1
 0 <= x79 <= 1
 0 <= x80 <= 1
 0 <= x81 <= 1
 0 <= x82 <= 1
 0 <= x83 <= 1
 0 <= x84 <= 1
 0 <= x85 <= 1
 0 <= x86 <= 1
 0 <= x87 <= 1
 0 <= x88 <= 1
 0 <= x89 <= 1
 0 <= x90 <= 1
 0 <= x91 <= 1
 0 <= x92 <= 1
 0 <= x93 <= 1
 0 <= x94 <= 1
 0 <= x95 <= 1
 0 <= x96 <= 1
 0 <= x97 <= 1
 0 <= x98 <= 1
 0 <= x99 <= 1
 0 <= x100 <= 1
 0 <= x101 <= 1
 0 <= x102 <= 1
 0 <= x103 <= 1
 0 <= x104 <= 1
 0 <= x105 <= 1
 0 <= x106 <= 1
 0 <= x107 <= 1
 0 <= x108 <= 1
 0 <= x109 <= 1
 0 <= x110 <= 1
 0 <= x111 <= 1
 0 <= x112 <= 1
 0 <= x113 <= 1
 0 <= x114 <= 1
 0 <= x115 <= 1
 0 <= x116 <= 1
 0 <= x117 <= 1
 0 <= x118 <= 1
 0 <= x119 <= 1
 0 <= x120 <= 1
 0 <= x121 <= 1
 0 <= x122 <= 1
 0 <= x123 <= 1
 0 <= x124 <= 1
 0 <= x125 <= 1
 0 <= x126 <= 1
 0 <= x127 <= 1
 0 <= x128 <= 1
 0 <= x129 <= 1
 0 <= x130 <= 1
 0 <= x131 <= 1
 0 <= x132 <= 1
 0 <= x133 <= 1
 0 <= x134 <= 1
 0 <= x135 <= 1
 0 <= x136 <= 1
 0 <= x137 <= 1
 0 <= x138 <= 1
 0 <= x139 <= 1
 0 <= x140 <= 1
 0 <= x141 <= 1
 0 <= x142 <= 1
 0 <= x143 <= 1
 0 <= x144 <= 1
 0 <= x145 <= 1
 0 <= x146 <= 1
 0 <= x147 <= 1
 0 <= x148 <= 1
 0 <= x149 <= 1
 0 <= x150 <= 1
 0 <= x151 <= 1
 0 <= x152 <= 1
 0 <= x153 <= 1
 0 <= x154 <= 1
 0 <= x155 <= 1
 0 <= x156 <= 1
 0 <= x157 <= 1
 0 <= x158 <= 1
 0 <= x159 <= 1
 0 <= x160 <= 1
 0 <= x161 <= 1
 0 <= x162 <= 1
 0 <= x163 <= 1
 0 <= x164 <= 1
 0 <= x165 <= 1
 0 <= x166 <= 1
 0 <= x167 <= 1
 0 <= x168 <= 1
 0 <= x169 <= 1
 0 <= x170 <= 1
 0 <= x171 <= 1
 0 <= x172 <= 1
 0 <= x173 <= 1
 0 <= x174 <= 1
 0 <= x175 <= 1
 0 <= x176 <= 1
 0 <= x177 <= 1
 0 <= x178 <= 1
 0 <= x179 <= 1
 0 <= x180 <= 1
 0 <= x181 <= 1
 0 <= x182 <= 1
 0 <= x183 <= 1
 0 <= x184 <= 1
 0 <= x185 <= 1
 0 <= x186 <= 1
 0 <= x187 <= 1
 0 <= x188 <= 1
 0 <= x189 <= 1
 0 <= x190 <= 1
 0 <= x191 <= 1
 0 <= x192 <= 1
 0 <= x193 <= 1
 0 <= x194 <= 1
 0 <= x195 <= 1
 0 <= x196 <= 1
 0 <= x197 <= 1
 0 <= x198 <= 1
 0 <= x199 <= 1
 0 <= x200 <= 1
 0 <= x201 <= 1
 0 <= x202 <= 1
 0 <= x203 <= 1
 0 <= x204 <= 1
 0 <= x205 <= 1
 0 <= x206 <= 1
 0 <= x207 <= 1
 0 <= x208 <= 1
 0 <= x209 <= 1
 0 <= x210 <= 1
 0 <= x211 <= 1
 0 <= x212 <= 1
 0 <= x213 <= 1
 0 <= x214 <= 1
 0 <= x215 <= 1
 0 <= x216 <= 1
 0 <= x217 <= 1
 0 <= x218 <= 1
 0 <= x219 <= 1
 0 <= x220 <= 1
 0 <= x221 <= 1
 0 <= x222 <= 1
 0 <= x223 <= 1
 0 <= x224 <= 1
 0 <= x225 <= 1
 0 <= x226 <= 1
 0 <= x227 <= 1
 0 <= x228 <= 1
 0 <= x229 <= 1
 0 <= x230 <= 1
 0 <= x231 <= 1
 0 <= x232 <= 1
 0 <= x233 <= 1
 0 <= x234 <= 1
 0 <= x235 <= 1
 0 <= x236 <= 1
 0 <= x237 <= 1
 0 <= x238 <= 1
 0 <= x239 <= 1
 0 <= x240 <= 1
 0 <= x241 <= 1
 0 <= x242 <= 1
 0 <= x243 <= 1
 0 <= x244 <= 1
 0 <= x245 <= 1
 0 <= x246 <= 1
 0 <= x247 <= 1
 0 <= x248 <= 1
 0 <= x249 <= 1
 0 <= x250 <= 1
 0 <= x251 <= 1
 0 <= x252 <= 1
 0 <= x253 <= 1
 0 <= x254 <= 1
 0 <= x255 <= 1
 0 <= x256 <= 1
 0 <= x257 <= 1
 0 <= x258 <= 1
 0 <= x259 <= 1
 0 <= x260 <= 1
 0 <= x261 <= 1
 0 <= x262 <= 1
 0 <= x263 <= 1
 0 <= x264 <= 1
 0 <= x265 <= 1
 0 <= x266 <= 1
 0 <= x267 <= 1
 0 <= x268 <= 1
 0 <= x269 <= 1
 0 <= x270 <= 1
 0 <= x271 <= 1
 0 <= x272 <= 1
 0 <= x273 <= 1
 0 <= x274 <= 1
 0 <= x275 <= 1
 0 <= x276 <= 1
 0 <= x277 <= 1
 0 <= x278 <= 1
 0 <= x279 <= 1
 0 <= x280 <= 1
 0 <= x281 <= 1
 0 <= x282 <= 1
 0 <= x283 <= 1
 0 <= x284 <= 1
 0 <= x285 <= 1
 0 <= x286 <= 1
 0 <= x287 <= 1
 0 <= x288 <= 1
 0 <= x289 <= 1
 0 <= x290 <= 1
 0 <= x291 <= 1
 0 <= x292 <= 1
 0 <= x293 <= 1
 0 <= x294 <= 1
 0 <= x295 <= 1
 0 <= x296 <= 1
 0 <= x297 <= 1
 0 <= x298 <= 1
 0 <= x299 <= 1
 0 <= x300 <= 1
Binaries
 x251  x252  x253  x254  x255  x256  x257  x258  x259  x260  x261  x262  x263 
 x264  x265  x266  x267  x268  x269  x270  x271  x272  x273  x274  x275  x276 
 x277  x278  x279  x280  x281  x282  x283  x284  x285  x286  x287  x288  x289 
 x290  x291  x292  x293  x294  x295  x296  x297  x298  x299  x300 
End
